
<<< setup


<<< generate

Version identifier: 22.1.1.0 | 2022-11-28 | 9160aff4d
CPXPARAM_TimeLimit                               1800
Found incumbent of value 0.000000 after 0.01 sec. (18.51 ticks)
Tried aggregator 1 time.
MIP Presolve eliminated 989 rows and 0 columns.
MIP Presolve modified 974168 coefficients.
Reduced MIP has 608855 rows, 488566 columns, and 2191878 nonzeros.
Reduced MIP has 487578 binaries, 988 generals, 0 SOSs, and 0 indicators.
Presolve time = 0.58 sec. (1004.24 ticks)
Probing time = 0.28 sec. (136.83 ticks)
Tried aggregator 1 time.
Detecting symmetries...
Elapsed time for symmetry detection = 17.17 sec. (10003.35 ticks)
Elapsed time for symmetry detection = 34.29 sec. (20005.38 ticks)
Elapsed time for symmetry detection = 50.12 sec. (30006.59 ticks)
Elapsed time for symmetry detection = 64.98 sec. (40008.25 ticks)
Elapsed time for symmetry detection = 79.08 sec. (50012.65 ticks)
Found 1.656721e+626 symmetric permutations.
Reduced MIP has 608855 rows, 488566 columns, and 2191878 nonzeros.
Reduced MIP has 487578 binaries, 988 generals, 0 SOSs, and 0 indicators.
Presolve time = 85.33 sec. (55246.77 ticks)
Probing time = 0.23 sec. (136.58 ticks)
Clique table members: 12448.
MIP emphasis: balance optimality and feasibility.
MIP search method: dynamic search.
Parallel mode: deterministic, using up to 8 threads.
Root relaxation solution time = 93.30 sec. (491131.58 ticks)

        Nodes                                         Cuts/
   Node  Left     Objective  IInf  Best Integer    Best Bound    ItCnt     Gap

*     0+    0                            0.0000    80000.0000              --- 
*     0+    0                         8464.0000    80000.0000           845.18%
      0     0    80000.0000 142341     8464.0000    80000.0000        4  845.18%
*     0+    0                        15331.0000    80000.0000           421.82%
      0     0    80000.0000 47603    15331.0000    Cuts: 8867    18108  421.82%
      0     0    80000.0000 44062    15331.0000    Cuts: 1145    22629  421.82%
      0     0    80000.0000 43186    15331.0000     Cuts: 233    23330  421.82%
*     0+    0                        16961.0000    80000.0000           371.67%
      0     0        cutoff          16961.0000    80000.0000    23330  371.67%
      0     0    80000.0000 42770    16961.0000     Cuts: 136    24075  371.67%
      0     0    80000.0000 42127    16961.0000     Cuts: 138    24729  371.67%
      0     0    80000.0000 42085    16961.0000     Cuts: 112    25243  371.67%
*     0+    0                        19078.0000    80000.0000           319.33%
      0     0        cutoff          19078.0000    80000.0000    25243  319.33%
      0     0    80000.0000 41929    19078.0000     Cuts: 101    25924  319.33%
      0     0    80000.0000 41929    19078.0000     Cuts: 135    26130  319.33%
      0     0    80000.0000 14641    19078.0000      Cuts: 62    26893  319.33%
      0     0    80000.0000 14748    19078.0000    Cuts: 1044    29766  319.33%
Heuristic still looking.
Heuristic still looking.
Heuristic still looking.
      0     2    80000.0000  9507    19078.0000    80000.0000    29766  319.33%
Elapsed time = 983.61 sec. (1762381.56 ticks, tree = 0.02 MB, solutions = 5)
      1     3    80000.0000  9324    19078.0000    80000.0000    29821  319.33%
      2     3    80000.0000  9151    19078.0000    80000.0000    31809  319.33%
      3     5    80000.0000 11167    19078.0000    80000.0000    47261  319.33%
      4     5    80000.0000  9357    19078.0000    80000.0000    38282  319.33%
      5     4    80000.0000 24870    19078.0000    80000.0000    76568  319.33%
      7     9    80000.0000 24401    19078.0000    80000.0000   141813  319.33%
      8    10    80000.0000 24647    19078.0000    80000.0000   142211  319.33%
      9     8    80000.0000 24335    19078.0000    80000.0000   101676  319.33%
     10    12    80000.0000 24126    19078.0000    80000.0000   145376  319.33%
     11    13    80000.0000 23929    19078.0000    80000.0000   146532  319.33%
Elapsed time = 1495.22 sec. (2020440.72 ticks, tree = 0.60 MB, solutions = 5)
     12    14    80000.0000 23993    19078.0000    80000.0000   146876  319.33%
     13    15    80000.0000 23231    19078.0000    80000.0000   148122  319.33%
     14    16    80000.0000 23151    19078.0000    80000.0000   149262  319.33%
*    16+    7                        20147.0000    80000.0000           297.08%
     16     9    80000.0000 24410    20147.0000    80000.0000   141787  297.08%
     17    18    80000.0000 23266    20147.0000    80000.0000   151911  297.08%
     18    19    80000.0000 23104    20147.0000    80000.0000   151917  297.08%
     20    21    80000.0000 23104    20147.0000    80000.0000   152546  297.08%
     22    23    80000.0000 23042    20147.0000    80000.0000   152859  297.08%
     24    25    80000.0000 23052    20147.0000    80000.0000   153326  297.08%
     26    27    80000.0000 22966    20147.0000    80000.0000   153486  297.08%
Elapsed time = 1618.87 sec. (2055714.10 ticks, tree = 11.67 MB, solutions = 6)
     28    11    80000.0000 25143    20147.0000    80000.0000   157881  297.08%
     29    14    80000.0000 24154    20147.0000    80000.0000   160497  297.08%
     30    15    80000.0000 24133    20147.0000    80000.0000   160601  297.08%
     32    17    80000.0000 23876    20147.0000    80000.0000   161431  297.08%
     33    18    80000.0000 23836    20147.0000    80000.0000   161460  297.08%
     35    20    80000.0000 23798    20147.0000    80000.0000   162180  297.08%
     36    13    80000.0000 23407    20147.0000    80000.0000   154238  297.08%
     37     7    80000.0000 25092    20147.0000    80000.0000   101870  297.08%
     39    14    80000.0000 22919    20147.0000    80000.0000   155372  297.08%
     40     6    80000.0000 25077    20147.0000    80000.0000    96797  297.08%
Elapsed time = 1706.10 sec. (2102678.96 ticks, tree = 0.02 MB, solutions = 7)
Starting limited solution polishing.
     41    22    80000.0000 23566    20147.0000    80000.0000   166089  297.08%
     43    24    80000.0000 23423    20147.0000    80000.0000   166165  297.08%
     44    15    80000.0000 23534    20147.0000    80000.0000   156559  297.08%
     46    20    80000.0000 23076    20147.0000    80000.0000   273143  297.08%
     47    25    80000.0000 23396    20147.0000    80000.0000   167891  297.08%
     48    26    80000.0000 23374    20147.0000    80000.0000   167901  297.08%
     49    15    80000.0000 24476    20147.0000    80000.0000   212222  297.08%
     51    22    80000.0000 22738    20147.0000    80000.0000   275771  297.08%
     53    24    80000.0000 22558    20147.0000    80000.0000   276813  297.08%
     55    17    80000.0000 24476    20147.0000    80000.0000   212311  297.08%
Elapsed time = 1786.06 sec. (2128897.64 ticks, tree = 9.37 MB, solutions = 7)
*    56+    7                        20169.0000    80000.0000           296.65%
     57    25    80000.0000 22150    20169.0000    80000.0000   277615  296.65%
     59    27    80000.0000 22260    20169.0000    80000.0000   278654  296.65%
     60    28    80000.0000 22076    20169.0000    80000.0000   279060  296.65%
     63    30    80000.0000 21975    20169.0000    80000.0000   279775  296.65%
     64    31    80000.0000 22153    20169.0000    80000.0000   285325  296.65%
     65    32    80000.0000 21972    20169.0000    80000.0000   285327  296.65%
     67    34    80000.0000 21922    20169.0000    80000.0000   285406  296.65%
     68    35    80000.0000 21990    20169.0000    80000.0000   287165  296.65%
     70    37    80000.0000 21918    20169.0000    80000.0000   287388  296.65%
     72    39    80000.0000 21911    20169.0000    80000.0000   287438  296.65%
Elapsed time = 1800.50 sec. (2161691.15 ticks, tree = 34.59 MB, solutions = 8)
     74    29    80000.0000 22698    20169.0000    80000.0000   165613  296.65%

Clique cuts applied:  490
Implied bound cuts applied:  246
Flow cuts applied:  837
Mixed integer rounding cuts applied:  813
Zero-half cuts applied:  55

Root node processing (before b&c):
  Real time             =  979.65 sec. (1750097.48 ticks)
Parallel b&c, 8 threads:
  Real time             =  821.04 sec. (435941.36 ticks)
  Sync time (average)   =  192.97 sec.
  Wait time (average)   =    0.00 sec.
                          ------------
Total (root+branch&cut) = 1800.69 sec. (2186038.84 ticks)

<<< solve


OBJECTIVE: 20169

<<< post process


<<< done

